#RD-IBG from 2D diamond (top-down)

dimension 3
units metal
processors * * 1
boundary p p p
neighbor 0.3 bin
neigh_modify every 1 delay 0 check yes

#define variables
variable T equal 300.0
variable V equal lx*ly*6.7  # 3.35 (1st layer) + gap (0) + 3.35 (2nd layer)
variable dt equal 0.0001

#lattice
atom_style atomic
read_data RDIBG_ab_2layers_10x10_50.00_BD.data

#define interatomic potentials
pair_style			airebo 3 1 0
pair_coeff 			* * CH.airebo C C H

dump equil all xyz 1000 equilibration.xyz
dump_modify equil sort id

#define thermo variable settings
timestep ${dt}

#### BOND FORMATION ####

group atom1 id 	3 7 11 15 19 23 27 31 35 39 43 47 51 55 59 63 67 71 75 79 83 87 91 95 99 103 107 111 115 119 123 127 131 135 139 143 147 151 155 159 163 171 173 175 177 179 181 183 185 187 189 191 193 195 197 199 201 203 205 207 209 211 213 215 217 219 221 223 225 227 229 231 233 235 237 239 241 243 245 247 249 251 253 255 257 259 261 263 265 267 269 271 273 275 277 279 281 283 285 287 289 291 293 295 297 299 301 303 305 307 309 311 313 315 317 319 321 323 325 327 329 331 333 339 341 343 345 347 349 351 353 355 357 359 361 363 365 367 369 371 373 375 377 379 381 383 385 387 389 391 393 395 397 399 401 403 405 407 409 411 413 415 417 419 421 423 425 427 429 431 433 435 437 439 441 443 445 447 449 451 453 455 457 459 461 463 465 467 469 471 473 475 477 479 481 483 485 487 489 491 493 495 497 499 501 507 509 511 513 515 517 519 521 523 525 527 529 531 533 535 537 539 541 543 545 547 549 551 553 555 557 559 561 563 565 567 569 571 573 575 577 579 581 583 585 587 589 591 593 595 597 599 601 603 605 607 609 611 613 615 617 619 621 623 625 627 629 631 633 635 637 639 641 643 645 647 649 651 653 655 657 659 661 663 665 667 669 675 677 679 681 683 685 687 689 691 693 695 697 699 701 703 705 707 709 711 713 715 717 719 721 723 725 727 729 731 733 735 737 739 741 743 745 747 749 751 753 755 757 759 761 763 765 767 769 771 773 775 777 779 781 783 785 787 789 791 793 795 797 799 801 803 805 807 809 811 813 815 817 819 821 823 825 827 829 831 833 835 837 843 845 847 849 851 853 855 857 859 861 863 865 867 869 871 873 875 877 879 881 883 885 887 889 891 893 895 897 899 901 903 905 907 909 911 913 915 917 919 921 923 925 927 929 931 933 935 937 939 941 943 945 947 949 951 953 955 957 959 961 963 965 967 969 971 973 975 977 979 981 983 985 987 989 991 993 995 997 999 1001 1003 1005 1011 1013 1015 1017 1019 1021 1023 1025 1027 1029 1031 1033 1035 1037 1039 1041 1043 1045 1047 1049 1051 1053 1055 1057 1059 1061 1063 1065 1067 1069 1071 1073 1075 1077 1079 1081 1083 1085 1087 1089 1091 1093 1095 1097 1099 1101 1103 1105 1107 1109 1111 1113 1115 1117 1119 1121 1123 1125 1127 1129 1131 1133 1135 1137 1139 1141 1143 1145 1147 1149 1151 1153 1155 1157 1159 1161 1163 1165 1167 1169 1171 1173 1179 1181 1183 1185 1187 1189 1191 1193 1195 1197 1199 1201 1203 1205 1207 1209 1211 1213 1215 1217 1219 1221 1223 1225 1227 1229 1231 1233 1235 1237 1239 1241 1243 1245 1247 1249 1251 1253 1255 1257 1259 1261 1263 1265 1267 1269 1271 1273 1275 1277 1279 1281 1283 1285 1287 1289 1291 1293 1295 1297 1299 1301 1303 1305 1307 1309 1311 1313 1315 1317 1319 1321 1323 1325 1327 1329 1331 1333 1335 1337 1339 1341 1347 1349 1351 1353 1355 1357 1359 1361 1363 1365 1367 1369 1371 1373 1375 1377 1379 1381 1383 1385 1387 1389 1391 1393 1395 1397 1399 1401 1403 1405 1407 1409 1411 1413 1415 1417 1419 1421 1423 1425 1427 1429 1431 1433 1435 1437 1439 1441 1443 1445 1447 1449 1451 1453 1455 1457 1459 1461 1463 1465 1467 1469 1471 1473 1475 1477 1479 1481 1483 1485 1487 1489 1491 1493 1495 1497 1499 1501 1503 1505 1507 1509 1515 1517 1519 1521 1523 1525 1527 1529 1531 1533 1535 1537 1539 1541 1543 1545 1547 1549 1551 1553 1555 1557 1559 1561 1563 1565 1567 1569 1571 1573 1575 1577 1579 1581 1583 1585 1587 1589 1591 1593 1595 1597 1599 1601 1603 1605 1607 1609 1611 1613 1615 1617 1619 1621 1623 1625 1627 1629 1631 1633 1635 1637 1639 1641 1643 1645 1647 1649 1651 1653 1655 1657 1659 1661 1663 1665 1667 1669 1671 1673 1675 1677 1683 1685 1687 1689 1691 1693 1695 1697 1699 1701 1703 1705 1707 1709 1711 1713 1715 1717 1719 1721 1723 1725 1727 1729 1731 1733 1735 1737 1739 1741 1743 1745 1747 1749 1751 1753 1755 1757 1759 1761 1763 1765 1767 1769 1771 1773 1775 1777 1779 1781 1783 1785 1787 1789 1791 1793 1795 1797 1799 1801 1803 1805 1807 1809 1811 1813 1815 1817 1819 1821 1823 1825 1827 1829 1831 1833 1835 1837 1839 1841 1843 1845 1851 1853 1855 1857 1859 1861 1863 1865 1867 1869 1871 1873 1875 1877 1879 1881 1883 1885 1887 1889 1891 1893 1895 1897 1899 1901 1903 1905 1907 1909 1911 1913 1915 1917 1919 1921 1923 1925 1927 1929 1931 1933 1935 1937 1939 1941 1943 1945 1947 1949 1951 1953 1955 1957 1959 1961 1963 1965 1967 1969 1971 1973 1975 1977 1979 1981 1983 1985 1987 1989 1991 1993 1995 1997 1999 2001 2003 2005 2007 2009 2011 2013 2019 2021 2023 2025 2027 2029 2031 2033 2035 2037 2039 2041 2043 2045 2047 2049 2051 2053 2055 2057 2059 2061 2063 2065 2067 2069 2071 2073 2075 2077 2079 2081 2083 2085 2087 2089 2091 2093 2095 2097 2099 2101 2103 2105 2107 2109 2111 2113 2115 2117 2119 2121 2123 2125 2127 2129 2131 2133 2135 2137 2139 2141 2143 2145 2147 2149 2151 2153 2155 2157 2159 2161 2163 2165 2167 2169 2171 2173 2175 2177 2179 2181 2187 2189 2191 2193 2195 2197 2199 2201 2203 2205 2207 2209 2211 2213 2215 2217 2219 2221 2223 2225 2227 2229 2231 2233 2235 2237 2239 2241 2243 2245 2247 2249 2251 2253 2255 2257 2259 2261 2263 2265 2267 2269 2271 2273 2275 2277 2279 2281 2283 2285 2287 2289 2291 2293 2295 2297 2299 2301 2303 2305 2307 2309 2311 2313 2315 2317 2319 2321 2323 2325 2327 2329 2331 2333 2335 2337 2339 2341 2343 2345 2347 2349 2355 2357 2359 2361 2363 2365 2367 2369 2371 2373 2375 2377 2379 2381 2383 2385 2387 2389 2391 2393 2395 2397 2399 2401 2403 2405 2407 2409 2411 2413 2415 2417 2419 2421 2423 2425 2427 2429 2431 2433 2435 2437 2439 2441 2443 2445 2447 2449 2451 2453 2455 2457 2459 2461 2463 2465 2467 2469 2471 2473 2475 2477 2479 2481 2483 2485 2487 2489 2491 2493 2495 2497 2499 2501 2503 2505 2507 2509 2511 2513 2515 2517 2523 2525 2527 2529 2531 2533 2535 2537 2539 2541 2543 2545 2547 2549 2551 2553 2555 2557 2559 2561 2563 2565 2567 2569 2571 2573 2575 2577 2579 2581 2583 2585 2587 2589 2591 2593 2595 2597 2599 2601 2603 2605 2607 2609 2611 2613 2615 2617 2619 2621 2623 2625 2627 2629 2631 2633 2635 2637 2639 2641 2643 2645 2647 2649 2651 2653 2655 2657 2659 2661 2663 2665 2667 2669 2671 2673 2675 2677 2679 2681 2683 2685 2691 2693 2695 2697 2699 2701 2703 2705 2707 2709 2711 2713 2715 2717 2719 2721 2723 2725 2727 2729 2731 2733 2735 2737 2739 2741 2743 2745 2747 2749 2751 2753 2755 2757 2759 2761 2763 2765 2767 2769 2771 2773 2775 2777 2779 2781 2783 2785 2787 2789 2791 2793 2795 2797 2799 2801 2803 2805 2807 2809 2811 2813 2815 2817 2819 2821 2823 2825 2827 2829 2831 2833 2835 2837 2839 2841 2843 2845 2847 2849 2851 2853 2859 2861 2863 2865 2867 2869 2871 2873 2875 2877 2879 2881 2883 2885 2887 2889 2891 2893 2895 2897 2899 2901 2903 2905 2907 2909 2911 2913 2915 2917 2919 2921 2923 2925 2927 2929 2931 2933 2935 2937 2939 2941 2943 2945 2947 2949 2951 2953 2955 2957 2959 2961 2963 2965 2967 2969 2971 2973 2975 2977 2979 2981 2983 2985 2987 2989 2991 2993 2995 2997 2999 3001 3003 3005 3007 3009 3011 3013 3015 3017 3019 3021 3027 3029 3031 3033 3035 3037 3039 3041 3043 3045 3047 3049 3051 3053 3055 3057 3059 3061 3063 3065 3067 3069 3071 3073 3075 3077 3079 3081 3083 3085 3087 3089 3091 3093 3095 3097 3099 3101 3103 3105 3107 3109 3111 3113 3115 3117 3119 3121 3123 3125 3127 3129 3131 3133 3135 3137 3139 3141 3143 3145 3147 3149 3151 3153 3155 3157 3159 3161 3163 3165 3167 3169 3171 3173 3175 3177 3179 3181 3183 3185 3187 3189 3195 3197 3199 3201 3203 3205 3207 3209 3211 3213 3215 3217 3219 3221 3223 3225 3227 3229 3231 3233 3235 3237 3239 3241 3243 3245 3247 3249 3251 3253 3255 3257 3259 3261 3263 3265 3267 3269 3271 3273 3275 3277 3279 3281 3283 3285 3287 3289 3291 3293 3295 3297 3299 3301 3303 3305 3307 3309 3311 3313 3315 3317 3319 3321 3323 3325 3327 3329 3331 3333 3335 3337 3339 3341 3343 3345 3347 3349 3351 3353 3355 3357 3363 3365 3367 3369 3371 3373 3375 3377 3379 3381 3383 3385 3387 3389 3391 3393 3395 3397 3399 3401 3403 3405 3407 3409 3411 3413 3415 3417 3419 3421 3423 3425 3427 3429 3431 3433 3435 3437 3439 3441 3443 3445 3447 3449 3451 3453 3455 3457 3459 3461 3463 3465 3467 3469 3471 3473 3475 3477 3479 3481 3483 3485 3487 3489 3491 3493 3495 3497 3499 3501 3503 3505 3507 3509 3511 3513 3515 3517 3519 3521 3523 3525 3531 3533 3535 3537 3539 3541 3543 3545 3547 3549 3551 3553 3555 3557 3559 3561 3563 3565 3567 3569 3571 3573 3575 3577 3579 3581 3583 3585 3587 3589 3591 3593 3595 3597 3599 3601 3603 3605 3607 3609 3611 3613 3615 3617 3619 3621 3623 3625 3627 3629 3631 3633 3635 3637 3639 3641 3643 3645 3647 3649 3651 3653 3655 3657 3659 3661 3663 3665 3667 3669 3671 3673 3675 3677 3679 3681 3683 3685 3687 3689 3691 3693 3699 3701 3703 3705 3707 3709 3711 3713 3715 3717 3719 3721 3723 3725 3727 3729 3731 3733 3735 3737 3739 3741 3743 3745 3747 3749 3751 3753 3755 3757 3759 3761 3763 3765 3767 3769 3771 3773 3775 3777 3779 3781 3783 3785 3787 3789 3791 3793 3795 3797 3799 3801 3803 3805 3807 3809 3811 3813 3815 3817 3819 3821 3823 3825 3827 3829 3831 3833 3835 3837 3839 3841 3843 3845 3847 3849 3851 3853 3855 3857 3859 3861 3867 3869 3871 3873 3875 3877 3879 3881 3883 3885 3887 3889 3891 3893 3895 3897 3899 3901 3903 3905 3907 3909 3911 3913 3915 3917 3919 3921 3923 3925 3927 3929 3931 3933 3935 3937 3939 3941 3943 3945 3947 3949 3951 3953 3955 3957 3959 3961 3963 3965 3967 3969 3971 3973 3975 3977 3979 3981 3983 3985 3987 3989 3991 3993 3995 3997 3999 4001 4003 4005 4007 4009 4011 4013 4015 4017 4019 4021 4023 4025 4027 4029 

group atom2 id 	4034 4038 4042 4046 4050 4054 4058 4062 4066 4070 4074 4078 4082 4086 4090 4094 4098 4102 4106 4110 4114 4118 4122 4126 4130 4134 4138 4142 4146 4150 4154 4158 4162 4166 4170 4174 4178 4182 4186 4190 4194 4202 4040 4206 4044 4210 4048 4214 4052 4218 4056 4222 4060 4226 4064 4230 4068 4234 4072 4238 4076 4242 4080 4246 4084 4250 4088 4254 4092 4258 4096 4262 4100 4266 4104 4270 4108 4274 4112 4278 4116 4282 4120 4286 4124 4290 4128 4294 4132 4298 4136 4302 4140 4306 4144 4310 4148 4314 4152 4318 4156 4322 4160 4326 4164 4330 4168 4334 4172 4338 4176 4342 4180 4346 4184 4350 4188 4354 4192 4358 4196 4362 4200 4370 4208 4374 4212 4378 4216 4382 4220 4386 4224 4390 4228 4394 4232 4398 4236 4402 4240 4406 4244 4410 4248 4414 4252 4418 4256 4422 4260 4426 4264 4430 4268 4434 4272 4438 4276 4442 4280 4446 4284 4450 4288 4454 4292 4458 4296 4462 4300 4466 4304 4470 4308 4474 4312 4478 4316 4482 4320 4486 4324 4490 4328 4494 4332 4498 4336 4502 4340 4506 4344 4510 4348 4514 4352 4518 4356 4522 4360 4526 4364 4530 4368 4538 4376 4542 4380 4546 4384 4550 4388 4554 4392 4558 4396 4562 4400 4566 4404 4570 4408 4574 4412 4578 4416 4582 4420 4586 4424 4590 4428 4594 4432 4598 4436 4602 4440 4606 4444 4610 4448 4614 4452 4618 4456 4622 4460 4626 4464 4630 4468 4634 4472 4638 4476 4642 4480 4646 4484 4650 4488 4654 4492 4658 4496 4662 4500 4666 4504 4670 4508 4674 4512 4678 4516 4682 4520 4686 4524 4690 4528 4694 4532 4698 4536 4706 4544 4710 4548 4714 4552 4718 4556 4722 4560 4726 4564 4730 4568 4734 4572 4738 4576 4742 4580 4746 4584 4750 4588 4754 4592 4758 4596 4762 4600 4766 4604 4770 4608 4774 4612 4778 4616 4782 4620 4786 4624 4790 4628 4794 4632 4798 4636 4802 4640 4806 4644 4810 4648 4814 4652 4818 4656 4822 4660 4826 4664 4830 4668 4834 4672 4838 4676 4842 4680 4846 4684 4850 4688 4854 4692 4858 4696 4862 4700 4866 4704 4874 4712 4878 4716 4882 4720 4886 4724 4890 4728 4894 4732 4898 4736 4902 4740 4906 4744 4910 4748 4914 4752 4918 4756 4922 4760 4926 4764 4930 4768 4934 4772 4938 4776 4942 4780 4946 4784 4950 4788 4954 4792 4958 4796 4962 4800 4966 4804 4970 4808 4974 4812 4978 4816 4982 4820 4986 4824 4990 4828 4994 4832 4998 4836 5002 4840 5006 4844 5010 4848 5014 4852 5018 4856 5022 4860 5026 4864 5030 4868 5034 4872 5042 4880 5046 4884 5050 4888 5054 4892 5058 4896 5062 4900 5066 4904 5070 4908 5074 4912 5078 4916 5082 4920 5086 4924 5090 4928 5094 4932 5098 4936 5102 4940 5106 4944 5110 4948 5114 4952 5118 4956 5122 4960 5126 4964 5130 4968 5134 4972 5138 4976 5142 4980 5146 4984 5150 4988 5154 4992 5158 4996 5162 5000 5166 5004 5170 5008 5174 5012 5178 5016 5182 5020 5186 5024 5190 5028 5194 5032 5198 5036 5202 5040 5210 5048 5214 5052 5218 5056 5222 5060 5226 5064 5230 5068 5234 5072 5238 5076 5242 5080 5246 5084 5250 5088 5254 5092 5258 5096 5262 5100 5266 5104 5270 5108 5274 5112 5278 5116 5282 5120 5286 5124 5290 5128 5294 5132 5298 5136 5302 5140 5306 5144 5310 5148 5314 5152 5318 5156 5322 5160 5326 5164 5330 5168 5334 5172 5338 5176 5342 5180 5346 5184 5350 5188 5354 5192 5358 5196 5362 5200 5366 5204 5370 5208 5378 5216 5382 5220 5386 5224 5390 5228 5394 5232 5398 5236 5402 5240 5406 5244 5410 5248 5414 5252 5418 5256 5422 5260 5426 5264 5430 5268 5434 5272 5438 5276 5442 5280 5446 5284 5450 5288 5454 5292 5458 5296 5462 5300 5466 5304 5470 5308 5474 5312 5478 5316 5482 5320 5486 5324 5490 5328 5494 5332 5498 5336 5502 5340 5506 5344 5510 5348 5514 5352 5518 5356 5522 5360 5526 5364 5530 5368 5534 5372 5538 5376 5546 5384 5550 5388 5554 5392 5558 5396 5562 5400 5566 5404 5570 5408 5574 5412 5578 5416 5582 5420 5586 5424 5590 5428 5594 5432 5598 5436 5602 5440 5606 5444 5610 5448 5614 5452 5618 5456 5622 5460 5626 5464 5630 5468 5634 5472 5638 5476 5642 5480 5646 5484 5650 5488 5654 5492 5658 5496 5662 5500 5666 5504 5670 5508 5674 5512 5678 5516 5682 5520 5686 5524 5690 5528 5694 5532 5698 5536 5702 5540 5706 5544 5714 5552 5718 5556 5722 5560 5726 5564 5730 5568 5734 5572 5738 5576 5742 5580 5746 5584 5750 5588 5754 5592 5758 5596 5762 5600 5766 5604 5770 5608 5774 5612 5778 5616 5782 5620 5786 5624 5790 5628 5794 5632 5798 5636 5802 5640 5806 5644 5810 5648 5814 5652 5818 5656 5822 5660 5826 5664 5830 5668 5834 5672 5838 5676 5842 5680 5846 5684 5850 5688 5854 5692 5858 5696 5862 5700 5866 5704 5870 5708 5874 5712 5882 5720 5886 5724 5890 5728 5894 5732 5898 5736 5902 5740 5906 5744 5910 5748 5914 5752 5918 5756 5922 5760 5926 5764 5930 5768 5934 5772 5938 5776 5942 5780 5946 5784 5950 5788 5954 5792 5958 5796 5962 5800 5966 5804 5970 5808 5974 5812 5978 5816 5982 5820 5986 5824 5990 5828 5994 5832 5998 5836 6002 5840 6006 5844 6010 5848 6014 5852 6018 5856 6022 5860 6026 5864 6030 5868 6034 5872 6038 5876 6042 5880 6050 5888 6054 5892 6058 5896 6062 5900 6066 5904 6070 5908 6074 5912 6078 5916 6082 5920 6086 5924 6090 5928 6094 5932 6098 5936 6102 5940 6106 5944 6110 5948 6114 5952 6118 5956 6122 5960 6126 5964 6130 5968 6134 5972 6138 5976 6142 5980 6146 5984 6150 5988 6154 5992 6158 5996 6162 6000 6166 6004 6170 6008 6174 6012 6178 6016 6182 6020 6186 6024 6190 6028 6194 6032 6198 6036 6202 6040 6206 6044 6210 6048 6218 6056 6222 6060 6226 6064 6230 6068 6234 6072 6238 6076 6242 6080 6246 6084 6250 6088 6254 6092 6258 6096 6262 6100 6266 6104 6270 6108 6274 6112 6278 6116 6282 6120 6286 6124 6290 6128 6294 6132 6298 6136 6302 6140 6306 6144 6310 6148 6314 6152 6318 6156 6322 6160 6326 6164 6330 6168 6334 6172 6338 6176 6342 6180 6346 6184 6350 6188 6354 6192 6358 6196 6362 6200 6366 6204 6370 6208 6374 6212 6378 6216 6386 6224 6390 6228 6394 6232 6398 6236 6402 6240 6406 6244 6410 6248 6414 6252 6418 6256 6422 6260 6426 6264 6430 6268 6434 6272 6438 6276 6442 6280 6446 6284 6450 6288 6454 6292 6458 6296 6462 6300 6466 6304 6470 6308 6474 6312 6478 6316 6482 6320 6486 6324 6490 6328 6494 6332 6498 6336 6502 6340 6506 6344 6510 6348 6514 6352 6518 6356 6522 6360 6526 6364 6530 6368 6534 6372 6538 6376 6542 6380 6546 6384 6554 6392 6558 6396 6562 6400 6566 6404 6570 6408 6574 6412 6578 6416 6582 6420 6586 6424 6590 6428 6594 6432 6598 6436 6602 6440 6606 6444 6610 6448 6614 6452 6618 6456 6622 6460 6626 6464 6630 6468 6634 6472 6638 6476 6642 6480 6646 6484 6650 6488 6654 6492 6658 6496 6662 6500 6666 6504 6670 6508 6674 6512 6678 6516 6682 6520 6686 6524 6690 6528 6694 6532 6698 6536 6702 6540 6706 6544 6710 6548 6714 6552 6722 6560 6726 6564 6730 6568 6734 6572 6738 6576 6742 6580 6746 6584 6750 6588 6754 6592 6758 6596 6762 6600 6766 6604 6770 6608 6774 6612 6778 6616 6782 6620 6786 6624 6790 6628 6794 6632 6798 6636 6802 6640 6806 6644 6810 6648 6814 6652 6818 6656 6822 6660 6826 6664 6830 6668 6834 6672 6838 6676 6842 6680 6846 6684 6850 6688 6854 6692 6858 6696 6862 6700 6866 6704 6870 6708 6874 6712 6878 6716 6882 6720 6890 6728 6894 6732 6898 6736 6902 6740 6906 6744 6910 6748 6914 6752 6918 6756 6922 6760 6926 6764 6930 6768 6934 6772 6938 6776 6942 6780 6946 6784 6950 6788 6954 6792 6958 6796 6962 6800 6966 6804 6970 6808 6974 6812 6978 6816 6982 6820 6986 6824 6990 6828 6994 6832 6998 6836 7002 6840 7006 6844 7010 6848 7014 6852 7018 6856 7022 6860 7026 6864 7030 6868 7034 6872 7038 6876 7042 6880 7046 6884 7050 6888 7058 6896 7062 6900 7066 6904 7070 6908 7074 6912 7078 6916 7082 6920 7086 6924 7090 6928 7094 6932 7098 6936 7102 6940 7106 6944 7110 6948 7114 6952 7118 6956 7122 6960 7126 6964 7130 6968 7134 6972 7138 6976 7142 6980 7146 6984 7150 6988 7154 6992 7158 6996 7162 7000 7166 7004 7170 7008 7174 7012 7178 7016 7182 7020 7186 7024 7190 7028 7194 7032 7198 7036 7202 7040 7206 7044 7210 7048 7214 7052 7218 7056 7226 7064 7230 7068 7234 7072 7238 7076 7242 7080 7246 7084 7250 7088 7254 7092 7258 7096 7262 7100 7266 7104 7270 7108 7274 7112 7278 7116 7282 7120 7286 7124 7290 7128 7294 7132 7298 7136 7302 7140 7306 7144 7310 7148 7314 7152 7318 7156 7322 7160 7326 7164 7330 7168 7334 7172 7338 7176 7342 7180 7346 7184 7350 7188 7354 7192 7358 7196 7362 7200 7366 7204 7370 7208 7374 7212 7378 7216 7382 7220 7386 7224 7394 7232 7398 7236 7402 7240 7406 7244 7410 7248 7414 7252 7418 7256 7422 7260 7426 7264 7430 7268 7434 7272 7438 7276 7442 7280 7446 7284 7450 7288 7454 7292 7458 7296 7462 7300 7466 7304 7470 7308 7474 7312 7478 7316 7482 7320 7486 7324 7490 7328 7494 7332 7498 7336 7502 7340 7506 7344 7510 7348 7514 7352 7518 7356 7522 7360 7526 7364 7530 7368 7534 7372 7538 7376 7542 7380 7546 7384 7550 7388 7554 7392 7562 7400 7566 7404 7570 7408 7574 7412 7578 7416 7582 7420 7586 7424 7590 7428 7594 7432 7598 7436 7602 7440 7606 7444 7610 7448 7614 7452 7618 7456 7622 7460 7626 7464 7630 7468 7634 7472 7638 7476 7642 7480 7646 7484 7650 7488 7654 7492 7658 7496 7662 7500 7666 7504 7670 7508 7674 7512 7678 7516 7682 7520 7686 7524 7690 7528 7694 7532 7698 7536 7702 7540 7706 7544 7710 7548 7714 7552 7718 7556 7722 7560 7730 7568 7734 7572 7738 7576 7742 7580 7746 7584 7750 7588 7754 7592 7758 7596 7762 7600 7766 7604 7770 7608 7774 7612 7778 7616 7782 7620 7786 7624 7790 7628 7794 7632 7798 7636 7802 7640 7806 7644 7810 7648 7814 7652 7818 7656 7822 7660 7826 7664 7830 7668 7834 7672 7838 7676 7842 7680 7846 7684 7850 7688 7854 7692 7858 7696 7862 7700 7866 7704 7870 7708 7874 7712 7878 7716 7882 7720 7886 7724 7890 7728 7898 7736 7902 7740 7906 7744 7910 7748 7914 7752 7918 7756 7922 7760 7926 7764 7930 7768 7934 7772 7938 7776 7942 7780 7946 7784 7950 7788 7954 7792 7958 7796 7962 7800 7966 7804 7970 7808 7974 7812 7978 7816 7982 7820 7986 7824 7990 7828 7994 7832 7998 7836 8002 7840 8006 7844 8010 7848 8014 7852 8018 7856 8022 7860 8026 7864 8030 7868 8034 7872 8038 7876 8042 7880 8046 7884 8050 7888 8054 7892 8058 7896 

displace_atoms atom1 move 0 0 1.15 units box
displace_atoms atom2 move 0 0 -1.15 units box

run 2000

group bonded union atom1 atom2
group nonbonded subtract all bonded

thermo_style  custom step time temp press pxx pyy pzz pe ke etotal
thermo    1000

# ======= minimization =======

min_style cg
minimize  1e-10 1e-10 200000 400000

write_data post_mini.data

# ======= equilibration =======

fix 2 all recenter INIT INIT INIT

fix 1 nonbonded npt temp $T $T 0.1 x 0.0 0.0 1.0 y 0.0 0.0 1.0 couple xy
run 150000
unfix 1

fix 1 all npt temp $T $T 0.1 x 0.0 0.0 1.0 y 0.0 0.0 1.0 couple xy
run 200000
unfix 1
unfix 2

write_data post_equil.data
