#Interlayer bonded Bilayer Graphene with random isolated bonds + passivation by H

dimension 3
units metal
processors * 1 1
boundary p p p
neighbor 0.3 bin
neigh_modify every 1 delay 0 check yes

# ======= define variables ======= #

variable T equal 300.0
variable V equal lx*ly*6.7  # 3.35 (1st layer) + gap (0) + 3.35 (2nd layer)
variable dt equal 0.0001

# ======= read data ======= #

atom_style atomic
read_data gr100x5aa_30.00BD.data

# ======= potential information ======= #

pair_style			airebo 3 1 0
pair_coeff 			* * CH.airebo C C H
dump 1 all xyz 1000 bondnew.xyz
dump_modify 1 sort id

# ======= time step ======= #

timestep ${dt}

# ======= bond formation ======= #

group atom1 id 	18453 6905 18017 13597 19479 11473 3665 11729 4787 10433 623 7021 13035 17121 19341 19481 15817 18913 9635 7455 4853 10111 9277 9199 13191 1809 17635 10727 4253 805 17835 17077 9559 16129 18627 2561 20279 3933 2343 415 16269 5771 9081 7891 1491 107 1009 4725 18585 19593 5963 17623 999 11285 749 6873 13475 19085 19927 3845 4357 9865 13415 2781 5959 7341 8379 10595 605 6395 9145 3815 6827 16957 5709 12027 9321 6307 9303 1483 15785 6575 8909 19257 17589 9001 3861 16577 10779 7413 7231 7445 13515 2833 7299 289 12843 12999 16461 15177 15427 4561 7073 14085 10877 15173 5097 18719 6781 16691 18963 2333 18155 4259 8219 14211 545 1911 3743 3925 15737 13557 2013 4067 5247 8991 11691 199 13825 17567 11105 4779 2869 271 14711 15829 9449 1661 2383 5129 19365 18469 5291 13045 14039 5401 5363 14879 18227 19467 12971 7801 4165 20231 10955 7611 18015 13171 11275 20031 14817 6001 13407 16301 15571 9183 15267 1243 15547 10039 18495 16735 11927 19613 18141 6449 19089 19101 20181 6219 18271 19931 18065 8037 671 14577 19237 18029 19739 15247 1983 4071 17475 7529 11229 6829 18933 19091 14185 16965 13759 1091 18841 4985 19579 14459 5953 18199 1201 8965 11819 6365 4241 16289 20427 16951 9833 14715 15363 15643 13441 2779 9797 10951 9195 18077 16535 12195 3881 8737 14805 8413 765 17151 16221 20635 5215 7487 8765 5587 12473 9285 18137 18763 20453 985 11299 12505 4935 4957 2777 3307 97 6843 13507 17179 8455 1289 2355 10969 13423 11157 7451 2099 19391 7827 14023 9877 14923 17221 9091 7523 9827 847 2673 7295 16783 17995 8385 11061 17175 14269 12239 8353 19033 20441 13193 5165 20253 14213 8939 19157 4009 10867 19299 12749 1021 135 11303 17207 13017 9223 17915 17261 1899 12643 6037 6181 6051 8717 1461 8515 12063 6665 16087 18121 14067 3185 9473 647 7077 4231 20481 5777 9179 16657 10353 6447 19077 2011 20193 463 4685 14849 7941 12113 14641 18635 12885 15107 13429 17127 19169 10369 6203 1223 3363 7123 7461 5523 20533 13707 17791 12721 16871 14767 18915 17855 4299 19765 7121 14013 5439 7709 4859 8655 17649 10327 13471 17819 12875 3019 18771 14833 393 9709 17929 16773 12525 2883 15119 17085 19109 13613 19019 309 19087 17971 11663 2043 2235 10719 4909 18371 16311 19349 15685 16679 12549 7245 10635 10629 11005 7259 9135 9433 2475 697 8023 17797 9525 4599 6897 6791 18709 7651 9163 14295 3813 14311 7905 12717 823 5447 8561 10725 221 14837 18033 5661 12269 19875 287 19145 10961 2319 14619 12951 1331 12975 3715 13529 18493 5977 5919 8553 10883 1555 13473 20617 13405 6573 407 2497 20315 8145 6543 1213 15629 2245 7167 15621 7999 7503 939 10711 8601 1615 17143 1367 2579 16969 5501 17853 10055 19051 12035 18791 1711 13237 4633 16115 8837 10699 14073 14371 2459 18273 8841 975 18285 18909 865 11737 5505 3939 20605 237 7151 19285 459 19233 9977 13931 5703 15205 1619 3187 9377 2937 8629 4199 8247 2957 6269 9287 17173 16905 5253 12605 5615 16205 11339 3891 3557 7583 11569 6821 1721 18811 8071 3623 2985 19763 16941 1693 7955 13601 18225 13777 4615 14589 18081 2723 11551 5901 16119 1093 17049 10235 9271 257 399 16525 11465 709 7223 14103 19303 19249 6385 3883 739 17473 3291 5993 3319 11161 6633 9409 9691 6885 18651 19501 7617 8805 839 2967 20657 11305 18875 20529 8437 4591 1545 339 19021 16765 19455 15909 13161 17765 7865 3651 19 16043 14659 245 8263 1071 19513 10681 10697 2857 19487 19129 16621 18249 9745 19771 10143 20113 10671 4113 9519 4053 6039 14763 4291 17909 17447 15623 15771 5817 5393 12979 171 9139 5687 17575 6677 12303 1101 14173 9657 14201 7263 5527 3915 3057 18545 1049 5419 18847 10533 11033 11283 4605 6987 15937 17643 4175 10945 1099 12127 13047 6363 19607 4915 7377 18939 1465 13911 8741 4119 13075 1297 18089 8483 3837 6653 16883 7061 14279 3625 12719 8497 16203 1263 2193 6063 5921 8929 13807 10777 13851 1293 12419 1043 5891 7149 7771 219 16381 18179 11231 10169 20105 4127 2823 5167 12353 10669 1327 5435 2627 4039 15853 18319 17497 13655 10237 11849 4015 10445 20449 1977 9875 4097 14305 3645 3445 18903 4427 14931 5623 9349 4967 20221 2513 7939 12733 20741 4157 17815 13893 3269 13057 16569 13531 12391 18519 7641 7369 427 15799 17213 9379 4319 19937 9051 12215 7309 8695 12503 3499 2911 20159 2863 2541 20217 1255 19751 375 19515 2427 12099 19189 7001 10553 167 12993 5593 3479 17901 2861 17491 3757 249 4479 17095 5229 8567 4211 2029 17227 17553 549 1459 17569 13675 4831 7139 10225 20673 6979 6383 12995 18299 8787 6013 16235 17489 13353 9119 4795 17275 5461 17165 14797 8253 14827 20463 5273 17145 5711 8511 13139 6303 12929 20119 11605 11025 13779 12363 8151 501 11759 4721 3465 16127 1373 5651 15791 13713 3735 19703 4301 3749 10979 16161 5149 497 14655 2791 12593 10527 4953 17105 18615 8913 11993 9605 19395 10967 10195 16831 979 15611 18691 385 12033 12941 7961 17557 19497 7563 19861 14457 10263 5553 5305 19071 16315 3717 7851 8143 1707 12443 14921 7117 4973 5433 5509 10103 5671 943 3073 9115 5287 10317 13963 20285 15203 14987 13007 7075 7577 3817 20611 9819 133 3801 4201 8261 7049 11901 6029 15375 9071 9369 13921 15353 10397 4827 14263 13079 2403 4361 18595 1027 3835 14451 4553 6675 19031 10933 13073 13611 11571 5197 16393 9517 3141 2631 16261 2621 16953 13949 18973 18465 4511 15393 19673 7535 5589 12457 4595 401 9919 9297 1987 15965 8221 6085 9101 13543 20053 9211 10157 10769 16823 17445 16293 9937 845 383 5087 4043 16685 14289 13743 3129 16921 16001 16947 13085 7703 7945 2885 2353 6153 11257 20275 7785 10971 7669 12085 16975 16005 10269 15195 893 10053 18055 7109 4629 6209 11469 5733 17653 15883 4237 14043 16879 2301 13361 14513 7153 7161 6021 18673 20511 12831 13215 925 11057 3797 19279 9979 19661 9581 10675 11565 1211 773 16501 19853 7911 11855 125 17927 14243 18181 19745 14131 9125 19741 8925 12769 19167 675 16341 11523 869 2927 2005 8139 19423 4785 20257 1177 6737 11419 11487 8947 18369 2179 15265 20051 5225 13791 9627 13561 7063 1335 9619 12617 4799 10477 15025 19439 345 7721 9743 16083 19683 10373 17715 15129 19573 16763 4975 3977 2331 7537 12393 4921 9669 6589 2413 465 7111 13409 6649 7491 11893 9451 5299 9731 13425 20169 7359 8777 9695 2667 6017 5113 7787 3117 1067 6931 17527 11191 11769 13973 15731 13879 15465 19197 14677 391 6089 17309 16901 15263 18979 1573 16715 4499 6565 6139 14261 3331 18313 18785 6259 2391 1275 8745 6701 11867 1375 16299 17961 13419 7227 3859 14105 6891 15781 6607 20307 13383 12007 8703 14197 3947 16919 14503 14057 8227 5605 17391 10065 15901 16423 18873 4417 18111 12911 18061 2077 3293 5863 7547 2533 5529 15185 9957 8857 13683 9487 8749 8923 14791 16291 11337 13207 5079 10307 9831 2563 2185 14701 18315 15395 17107 18945 19949 12219 19137 17089 15301 5827 3753 9265 14749 7621 1519 14667 3941 9019 20465 5705 4945 14053 15987 10099 7155 10089 3469 2485 9603 7067 6375 17683 2417 19201 12551 20615 20497 5033 1515 11135 11043 1505 15511 4329 16443 14585 18431 19415 10177 3745 10855 13959 13055 3201 16141 11545 13923 11583 3369 20521 18197 18383 11369 18171 18993 11241 2701 16837 569 8153 18205 8435 16157 3539 6639 1623 19531 2283 3799 18947 381 12153 19083 7489 13603 13275 11505 11123 15167 347 18009 14413 11409 18221 19647 6343 2243 7781 11889 15229 3237 7287 12361 14385 5645 18755 3671 3391 2799 14251 17745 5861 2635 12747 4889 16991 15115 13349 17733 15001 9901 14149 6407 17507 6199 1095 7459 1831 4961 667 13137 1179 17811 3439 12013 14615 18985 13667 8705 4409 4507 16391 20563 9351 1787 12179 12735 8945 16771 6973 14859 485 13493 12557 3545 13333 11481 16377 17055 12877 2239 13827 19287 6261 4817 20549 5679 101 3551 8957 1641 10585 10843 13495 13019 16517 15077 2181 16241 11555 12589 7983 6983 16163 7895 14163 283 1679 8159 8509 14293 4569 2085 11775 10947 8425 16081 4103 16109 4003 10407 3931 15035 1271 8407 6205 6767 16137 18001 14665 6413 11653 14339 13295 11677 7987 18853 7665 9235 6977 5851 3707 1527 8369 5669 12001 9175 15207 16199 11595 8067 16603 3075 1871 7793 7849 8249 8421 19193 10539 20029 4041 4555 6355 20373 18261 11291 16297 8055 9395 16639 3911 11831 16373 409 11269 5813 20443 18101 13591 16601 1237 6225 8727 5915 20651 3561 12837 18713 7281 10531 7735 9397 17947 18661 71 7713 9565 2693 10243 7759 3303 12359 15237 11977 15835 12293 16575 5449 2929 12903 16089 1087 8423 10017 3683 3805 10047 1725 7981 4393 5689 16605 12471 17471 20567 4991 4107 16551 14031 16675 16795 3821 16743 7943 7271 6049 4939 6191 10691 16647 15361 445 19767 3149 12805 14853 15655 13037 15063 19175 18159 18491 15193 12383 18031 6133 7365 17119 17495 1841 2487 4559 8457 11315 9587 17277 12509 20225 14729 13787 19685 6237 14473 10663 18367 20499 3701 7887 5205 20509 14759 419 5947 17079 17005 13547 2953 18117 4733 13385 223 15589 9927 18955 5929 10401 11099 13505 10815 18361 493 4451 14537 1719 16881 8879 11457 3481 4997 11787 195 16725 12349 13715 15459 1153 11333 5579 10027 1803 18529 10799 9789 851 8605 12387 16031 4083 8355 11983 18539 2279 5823 3887 5831 6583 12483 327 11717 17431 1083 2131 4619 13669 19665 20579 2001 18085 3567 10127 11093 20197 19599 10019 9795 7775 145 2091 11591 18701 275 18699 14017 9021 13209 17395 2529 819 10479 13359 20701 4013 3051 16741 2943 15951 6189 17389 4395 12813 905 17821 3275 17371 12277 8633 7405 3527 20083 16335 1945 9319 6233 11433 4441 3919 15823 9315 2969 16737 6721 9553 10759 5185 625 4341 7681 1291 12049 14813 2785 15317 12825 2321 5063 5685 15759 15535 17543 9545 11847 19499 4919 14947 9761 12949 12541 10893 16759 12125 1361 13939 16133 4295 12367 7691 20265 7985 14183 15455 15879 14637 2253 3371 863 16903 7321 5169 4147 20043 8033 9255 15149 8863 2049 2205 8409 5227 14809 9747 9597 5343 1001 11885 14337 19127 7475 5071 9111 10267 2509 7179 7631 5029 13117 10429 8779 20179 13243 15517 14855 11809 17359 7711 18885 16785 16229 13703 8401 18293 1793 8303 14489 743 9489 8259 11543 14703 821 6105 14099 16687 12569 203 10283 11259 11869 4433 15911 4585 2999 16219 9215 9047 15855 3867 16209 16753 9361 767 7101 18209 12023 3153 9891 17047 4089 9197 12697 10869 1715 9837 13247 15871 14467 11455 5517 5751 363 5765 18363 665 8875 5655 13451 15255 165 10447 18411 4123 4269 7699 2177 16815 4777 3453 20487 13063 7627 1601 9935 1813 6287 11021 12083 3703 13709 19567 4411 5005 20515 14727 3211 2059 14321 10291 15671 13647 5913 19617 15561 13679 8239 14035 19141 6661 13733 14015 955 7465 19823 13371 10713 151 17415 13095 4177 8597 17737 15747 20345 10219 6923 4949 11947 479 7409 10845 14139 3137 7441 12961 10745 8265 7705 4819 11471 13263 12783 20093 2495 16337 18557 11711 451 7769 13797 7417 2811 837 3559 17945 4297 3795 12811 19405 433 18877 14635 9687 15527 12651 9739 11015 16451 15087 1511 16357 1549 6851 2605 10577 6409 8133 4639 11621 10101 2265 12921 13541 5163 15745 8229 9649 9399 8235 7791 4541 7601 17147 15481 11781 18097 19849 2583 20491 10785 12531 20353 11413 3929 19965 11379 6617 11557 12797 4461 9759 10925 20335 1861 17235 15243 12861 17587 10729 11749 19427 13933 12187 20489 16073 4513 16825 16925 18401 4717 19345 14631 4529 14095 18563 15587 10185 20733 4505 10993 18053 11763 4947 4537 11827 10331 9617 6031 14379 7753 11799 9079 17487 18505 13575 15833 20245 19061 5007 13001 1161 16661 20005 2657 14765 15723 3069 13859 20369 10957 3713 9633 18149 10863 6431 17061 17485 11979 11921 14037 3089 6473 585 15683 641 13013 19123 5307 16075 5095 4677 14327 9213 6201 11119 11761 11603 12199 5391 5795 989 3613 1881 16343 4993 18641 13971 7279 8675 2961 6937 17609 17323 8791 15713 5057 13737 7009 11797 12533 13795 4483 12189 4521 16263 9337 7649 15033 14245 5533 6707 19081 4055 5405 321 861 11803 15287 20121 13569 17059 10889 19519 10853 20203 11639 18387 11905 4813 6981 17565 3849 6761 1637 16121 5865 3597 19403 11023 10155 17361 9777 18265 6587 9159 4825 3377 17113 7859 4557 14929 17983 9363 16399 13871 15105 8241 10575 10001 12337 19829 1073 16445 1741 8773 4455 20111 7453 17551 6869 807 17291 13119 12265 9429 12823 17315 4371 5009 8415 12741 20447 7593 8365 5871 17977 18455 4247 10935 17595 3569 2345 4281 3421 14899 13573 3109 6165 16223 17879 2615 8485 4443 13723 5203 5725 6415 16255 1539 15985 4943 5155 8399 959 19047 10509 13325 10003 16257 9443 1301 1353 11163 1625 13845 20311 3385 16061 1383 10139 20055 15651 10045 5731 1717 18613 11375 11359 14219 17991 14323 10457 8657 12477 12157 13393 2183 8613 1019 12667 3403 14483 2899 8685 15231 17203 17481 13133 4101 7507 10287 13231 1449 18593 6845 13431 12925 13609 15461 1907 12553 15359 12273 13039 19297 16483 10161 5617 4193 9809 3541 12555 3893 8121 9773 10281 9621 1069 18405 8993 18589 159 1979 20613 16379 11389 17665 1345 10983 2101 12537 5647 3725 20035 15679 2233 3511 15413 14189 12067 7719 7351 7603 19401 6377 6453 17299 9049 19841 12017 5535 1075 12927 13649 6595 13885 3943 1523 5389 14867 12777 4871 9041 12519 20621 15333 1645 7689 5749 6005 17899 4607 4643 15701 1727 13665 4603 11783 12915 12069 9985 4413 7517 14795 1665 15953 15385 10105 20689 19017 7425 13107 15169 6185 9467 2679 515 3113 6727 10163 12397 17585 12375 18997 3267 20539 1281 20195 14591 3619 4757 1117 13539 5351 11035 713 4713 13005 4265 18165 8461 7499 19517 14801 19053 18863 16615 5713 5475 19707 1837 13105 3215 1305 19113 15947 17287 5489 17413 1061 17441 14107 4589 13357 10075 6137 10077 12181 10321 1887 16775 1351 5037 16927 3339 17577 13413 12389 14675 7855 11445 1205 7845 11959 2309 14977 8243 6231 18897 8491 5663 10831 1659 13249 15201 2591 9641 12223 3279 1597 2389 2055 5381 8237 14599 10875 6485 14779 9373 9233 8521 10905 14009 5099 16469 6087 19055 20557 4525 189 12991 13265 3323 3847 8205 9703 15531 18183 11371 13229 12507 1313 8045 19371 10519 1563 7751 335 17917 7329 14331 9357 9203 17041 19697 17279 7599 2801 20291 5507 3631 2849 1535 10529 11365 7723 4737 3937 12451 19347 8607 2065 12281 6103 19247 11183 10973 1187 18605 8429 7229 8459 15983 225 13867 8723 10371 10755 19921 11821 11845 15831 5855 14001 11377 14685 4317 15569 15425 7355 15095 11589 19079 11753 4829 1477 15637 5737 19583 17301 3245 8519 11109 6847 5269 7929 19831 18739 5003 15695 17679 13633 17751 6991 15859 12425 19597 11479 17673 2155 1657 1595 11987 15601 12355 9567 8559 5873 7431 2083 11559 11863 16801 5135 17099 6347 1903 11865 17353 9057 18667 3159 7597 1905 15973 16305 831 3909 18093 15769 3617 6349 12917 18521 2597 15917 13997 12775 20081 7361 13179 2757 3829 20261 20139 19325 16421 19667 10405 18057 19437 5571 11497 2609 14275 757 18365 13081 4659 3133 7383 14897 2359 15899 13653 2675 5869 963 20305 10833 18445 11943 7171 6765 16847 8619 2145 15161 20647 14851 2629 6223 12987 9011 5233 19229 14249 8867 18427 7975 17319 4689 6403 12213 6217 18269 10363 5301 8117 9157 3731 1011 4631 16131 8307 17843 18623 10239 3637 2499 3851 14423 9527 13453 6817 11807 18639 4425 449 14955 6907 3283 4671 13187 16347 5499 4789 5077 6787 15537 15787 2697 7953 11367 1517 14409 19069 14515 18279 589 11187 9693 471 3055 19049 8937 1341 3209 11325 8233 11757 2225 20263 2699 5027 10043 12599 12873 14463 7541 9775 15331 1647 1469 11049 2335 4323 11739 12435 7373 14179 7047 3361 3903 17713 13135 5483 18341 5257 19871 11875 14021 403 4727 20543 5051 5201 14217 561 18287 3329 8865 5067 4719 17023 11833 14353 19705 10015 17003 4611 10615 1129 7533 17659 19855 2237 13255 10953 19809 9493 19139 18773 7249 12091 5609 4539 4535 3647 8137 13121 14543 1017 5743 15029 16339 10797 8919 5549 19701 14865 8317 16041 16821 3857 6285 12833 3865 12547 9059 5625 12799 19063 10441 17681 3751 17271 19119 11307 11467 10069 8959 15291 6623 15675 3447 10085 2329 2887 4517 815 15471 6631 4109 6091 9455 6553 4657 19267 8297 20407 8771 1807 4937 4923 14415 13089 
